100
16
62
46
76
59
49
98
28
65
15
46
51
9
77
99
87
50
67
96
76
29
40
37
75
91
7
68
30
28
90
12
16
91
2
48
27
38
63
68
7
10
71
77
31
83
99
95
24
18
39
56
40
28
68
15
40
69
36
62
17
6
46
29
13
56
74
80
67
82
84
18
21
49
42
59
16
37
87
36
32
8
61
28
35
71
12
99
54
97
47
90
59
9
24
86
57
69
93
67
9
33
20
85
56
96
38
15
1
6
49
63
7
54
3
61
13
7
75
19
82
17
27
32
84
43
99
49
6
87
18
30
19
39
24
45
28
13
1
17
69
86
72
47
43
12
84
77
7
70
34
47
9
45
59
42
73
2
70
44
51
50
46
48
91
31
79
32
20
89
85
18
15
74
24
52
68
61
68
5
54
6
32
60
93
44
96
59
42
31
64
77
86
90
24
94
6
67
81
17
85
30
48
46
45
76
4
8
49
63
88
57
85
48
98
52
49
48
16
77
45
75
27
73
47
44
59
64
14
79